% seed = 0

mint = 31;
% maxt = 215;

nActs = 92;
dur = [0,2,1,1,1,2,2,2,3,3,2,2,5,2,4,4,2,1,2,1,2,2,4,3,4,4,1,2,1,2,4,2,2,1,2,3,1,3,2,3,2,3,3,3,2,2,2,4,7,2,2,2,3,2,2,1,2,4,1,1,3,2,2,3,2,1,1,6,4,2,2,1,1,4,4,2,3,2,2,3,1,1,2,1,6,3,2,1,3,1,4,0];

nSkills = 15;
sreq = [| 0,0,0,0,0,0,0,0,0,0,0,0,0,0,0,
	| 0,0,0,0,0,0,2,0,0,0,0,1,0,0,0,
	| 0,0,0,0,0,0,0,0,0,0,0,0,1,1,0,
	| 0,0,0,1,0,0,0,0,1,1,0,0,1,0,0,
	| 0,0,0,1,0,0,0,1,0,1,0,1,0,0,0,
	| 0,0,0,0,0,0,0,0,0,0,0,1,1,0,0,
	| 1,0,0,0,0,0,0,0,0,0,0,0,1,2,0,
	| 0,0,1,0,1,0,0,0,0,0,0,0,0,0,0,
	| 0,1,0,0,0,0,0,1,1,0,0,0,0,1,0,
	| 0,0,0,0,0,0,0,0,0,0,0,0,0,2,0,
	| 0,0,0,1,0,0,0,0,0,0,1,0,0,1,0,
	| 0,0,0,0,0,1,0,0,0,0,1,0,0,0,0,
	| 0,0,0,0,0,0,0,0,0,0,0,0,1,0,0,
	| 0,1,0,0,0,0,1,0,0,0,0,0,1,0,0,
	| 0,0,0,0,0,0,1,0,0,1,0,0,0,0,0,
	| 0,2,0,0,0,0,0,0,0,0,0,1,0,0,0,
	| 0,0,0,0,0,1,0,1,0,1,0,0,1,0,0,
	| 0,1,0,0,1,0,0,0,1,0,1,0,0,0,0,
	| 0,0,1,0,0,0,0,0,1,0,0,0,0,0,0,
	| 0,0,0,0,0,0,0,0,0,0,1,0,0,1,0,
	| 0,0,1,0,0,0,1,1,0,0,1,0,0,0,0,
	| 0,0,0,0,0,0,0,1,0,0,0,2,0,1,0,
	| 0,0,0,0,1,1,1,0,1,0,0,0,0,0,0,
	| 0,0,0,0,0,1,0,0,0,0,0,0,0,0,0,
	| 0,0,0,0,0,1,0,1,2,0,0,0,0,0,0,
	| 0,0,0,0,0,2,0,0,0,0,1,0,0,0,0,
	| 0,0,0,0,0,0,0,1,0,0,0,0,0,0,0,
	| 0,0,0,1,0,0,0,0,0,0,1,0,0,0,0,
	| 0,0,1,1,0,0,0,0,1,0,0,0,0,0,0,
	| 0,0,0,0,0,0,0,0,0,0,0,0,2,0,0,
	| 0,0,1,0,1,0,0,0,0,0,0,0,0,0,0,
	| 0,0,0,0,0,1,0,0,0,0,0,0,0,0,0,
	| 0,0,0,0,0,0,0,1,0,0,0,1,0,0,0,
	| 0,0,0,0,0,0,0,0,0,0,0,0,1,0,0,
	| 1,0,0,1,0,0,0,1,0,0,0,0,0,1,0,
	| 0,0,0,0,0,0,0,0,1,0,0,0,1,0,0,
	| 0,0,1,0,0,0,0,1,0,0,0,0,0,1,0,
	| 0,0,0,0,0,1,0,0,0,0,0,0,0,0,0,
	| 0,0,0,0,0,1,0,0,0,0,0,0,0,0,0,
	| 0,0,0,1,0,0,0,0,1,0,0,1,0,1,0,
	| 0,0,1,0,0,0,0,0,0,0,0,1,1,0,0,
	| 0,0,1,0,1,0,0,1,0,0,0,0,1,0,0,
	| 0,0,0,0,1,0,0,0,0,0,0,0,1,0,0,
	| 0,0,0,0,1,0,0,0,0,0,1,0,1,0,0,
	| 0,1,1,0,1,0,0,0,0,0,0,0,1,0,0,
	| 0,0,0,0,0,0,1,0,0,0,0,0,0,0,0,
	| 0,0,0,0,1,0,0,0,0,0,0,0,2,0,0,
	| 0,0,0,1,0,0,0,0,0,0,0,0,1,0,0,
	| 0,0,0,1,1,0,0,0,0,1,0,0,1,0,0,
	| 0,1,0,0,0,1,0,0,0,0,0,0,0,0,0,
	| 0,0,0,0,1,0,0,0,1,0,0,0,0,0,0,
	| 0,0,1,0,0,0,0,1,0,0,0,0,1,1,0,
	| 0,0,0,0,0,0,1,1,0,0,0,1,0,0,0,
	| 0,0,0,0,1,0,1,0,0,0,0,0,1,0,1,
	| 0,0,0,0,0,1,0,0,0,0,0,0,0,1,0,
	| 0,0,0,0,0,0,0,0,0,0,1,1,0,1,0,
	| 0,0,0,0,1,0,0,0,1,0,0,0,0,0,0,
	| 0,0,0,0,0,1,0,0,0,0,0,0,0,0,0,
	| 0,0,0,0,2,0,0,0,0,0,0,0,0,0,0,
	| 0,1,0,0,1,0,0,1,0,0,0,1,0,0,0,
	| 0,1,0,0,0,0,1,1,0,0,0,0,1,0,0,
	| 0,0,0,0,0,0,0,1,0,0,0,1,1,0,0,
	| 0,0,0,0,2,0,0,1,0,0,0,0,1,0,0,
	| 0,1,0,0,0,0,0,1,0,0,0,0,1,0,0,
	| 0,0,1,1,0,0,0,1,1,0,0,0,0,0,0,
	| 0,0,0,0,0,0,0,0,0,0,1,0,0,1,0,
	| 0,0,0,0,1,1,1,0,1,0,0,0,0,0,0,
	| 0,0,1,0,1,0,0,1,0,0,0,1,0,0,0,
	| 0,0,0,0,0,0,0,0,0,1,0,0,0,0,0,
	| 0,0,1,1,0,0,0,0,0,1,0,0,0,0,0,
	| 0,1,0,0,0,0,0,0,0,0,0,0,0,0,0,
	| 0,0,0,1,0,1,0,0,0,1,0,1,0,0,0,
	| 0,0,0,0,0,0,0,0,0,1,0,1,1,1,0,
	| 0,0,0,0,0,0,0,1,0,0,0,0,0,0,0,
	| 1,1,0,0,0,1,0,0,1,0,0,0,0,0,0,
	| 0,0,0,0,1,0,0,0,0,0,0,0,0,2,0,
	| 0,0,0,0,1,0,0,0,0,0,0,0,1,0,0,
	| 0,0,0,0,0,0,0,0,0,0,1,0,0,0,0,
	| 0,1,0,0,1,1,0,0,0,0,0,0,0,0,0,
	| 0,0,0,0,0,0,0,0,0,0,0,1,1,1,0,
	| 0,1,1,0,0,0,0,0,0,0,0,1,0,1,0,
	| 0,0,0,0,0,0,0,0,0,0,0,0,1,0,0,
	| 0,0,0,0,0,0,0,0,2,0,0,0,1,1,0,
	| 0,0,1,0,0,0,0,1,0,1,0,1,0,0,0,
	| 0,0,0,0,0,0,1,0,1,0,0,2,0,0,0,
	| 0,0,0,0,1,0,0,0,0,0,0,0,0,0,0,
	| 0,0,0,0,0,0,0,0,0,0,0,1,0,0,0,
	| 0,0,0,0,0,1,1,0,0,1,0,0,0,0,0,
	| 1,0,0,0,0,0,0,1,0,0,0,0,1,0,0,
	| 0,0,0,0,0,0,1,0,0,0,0,0,1,1,0,
	| 0,0,0,0,1,0,0,0,1,0,0,0,0,0,0,
	| 0,0,0,0,0,0,0,0,0,0,0,0,0,0,0, |];

% SumOfsreq = 245;

nResources = 14;
mastery = [| true,true,true,false,false,true,false,false,false,false,false,false,false,false,false,
	| false,false,false,false,false,false,true,true,true,false,false,false,false,false,false,
	| false,false,false,false,false,false,false,false,false,true,true,true,true,true,true,
	| false,true,true,false,false,false,false,false,false,false,false,false,false,false,false,
	| false,false,false,false,false,false,false,false,false,true,true,true,false,false,false,
	| false,false,false,true,true,true,false,false,false,false,false,false,false,false,false,
	| false,false,false,false,false,false,false,false,false,false,false,false,true,true,true,
	| false,false,false,true,true,true,false,false,true,false,true,true,false,false,false,
	| false,false,false,false,false,false,true,true,true,false,false,false,false,false,false,
	| false,true,true,false,false,false,false,false,false,true,true,true,true,true,true,
	| false,false,false,false,false,false,true,true,true,false,false,false,false,false,false,
	| false,false,false,false,true,true,false,false,false,false,false,false,false,false,false,
	| false,false,false,false,false,false,false,false,false,false,false,true,true,true,true,
	| false,false,false,false,false,true,false,false,false,false,false,false,false,false,false, |];

nPrecs = 194;
pred = [1,1,1,2,2,3,3,3,4,4,4,5,5,5,6,6,6,7,7,7,8,8,8,9,9,9,10,10,10,11,11,11,12,12,12,13,13,13,14,14,14,15,15,15,16,16,17,17,17,18,18,18,19,19,19,20,20,21,21,22,22,22,23,23,23,24,25,25,26,26,26,27,27,27,28,28,28,29,29,29,30,30,30,31,31,31,32,32,32,33,33,33,34,35,35,36,36,37,37,37,38,38,38,39,39,39,40,40,40,41,41,41,42,42,42,43,44,44,44,45,45,45,46,47,47,48,48,48,49,49,49,50,50,50,51,51,52,52,53,53,53,54,54,55,56,56,56,57,57,58,59,60,60,60,61,61,62,63,64,64,65,65,65,66,67,67,68,68,68,69,70,71,72,73,74,75,76,76,77,77,78,79,80,81,82,83,84,85,86,87,88,89,90,91];
succ = [2,3,4,18,21,10,6,31,5,7,8,82,22,16,12,13,15,11,53,80,9,29,32,53,14,55,69,13,54,17,28,61,26,36,30,17,76,47,19,21,63,45,44,37,73,46,43,20,79,25,27,23,65,35,46,21,87,85,46,81,29,24,57,52,47,30,33,38,50,83,45,41,66,70,49,44,70,59,37,72,34,42,40,55,39,32,74,43,62,57,50,39,63,51,56,67,48,61,71,64,49,75,56,65,60,86,52,47,56,57,65,75,43,75,71,73,67,54,62,52,61,64,83,74,55,91,68,53,50,51,58,73,62,87,59,76,60,77,66,69,54,84,78,64,58,60,71,58,68,59,69,67,70,72,63,88,76,84,66,78,82,68,78,86,91,79,81,77,72,86,87,74,80,88,77,83,81,82,79,80,85,85,89,88,91,84,89,90,90,89,90,92,92,92];

nUnrels = 2472;
unpred = [2,2,2,2,2,2,2,2,2,2,2,2,2,2,2,2,2,2,2,2,2,2,2,2,2,2,2,2,2,2,2,2,2,2,2,2,2,2,2,3,3,3,3,3,3,3,3,3,3,3,3,3,3,3,3,3,3,3,3,3,3,3,3,4,4,4,4,4,4,4,4,4,4,4,4,4,4,4,4,4,4,4,5,5,5,5,5,5,5,5,5,5,5,5,5,5,5,5,5,5,5,5,5,5,5,5,5,5,5,5,5,5,5,5,5,5,5,5,5,5,5,5,5,6,6,6,6,6,6,6,6,6,6,6,6,6,6,6,6,6,6,6,6,6,6,6,6,6,6,6,7,7,7,7,7,7,7,7,7,7,7,7,7,7,7,7,7,7,7,7,7,7,7,7,7,7,7,7,7,7,7,7,7,7,7,7,7,7,7,7,7,7,7,7,7,7,8,8,8,8,8,8,8,8,8,8,8,8,8,8,8,8,8,8,8,8,8,8,8,8,8,8,8,8,8,8,8,8,8,8,8,9,9,9,9,9,9,9,9,9,9,9,9,9,9,9,9,9,9,9,9,9,9,9,9,9,9,9,9,9,9,9,9,9,9,9,9,9,9,9,9,9,9,10,10,10,10,10,10,10,10,10,10,10,10,10,10,10,10,10,10,10,10,10,10,10,10,10,10,10,10,10,10,10,10,10,10,10,10,10,10,10,10,10,10,10,10,10,10,10,10,10,10,10,11,11,11,11,11,11,11,11,11,11,11,11,11,11,11,11,11,11,11,11,11,11,11,11,11,11,11,11,11,11,11,11,11,11,11,11,11,11,11,11,11,11,11,11,11,11,12,12,12,12,12,12,12,12,12,12,12,12,12,12,12,12,12,12,12,12,12,12,12,12,12,12,12,12,12,12,13,13,13,13,13,13,13,13,13,13,13,13,13,13,13,13,13,13,13,13,13,13,13,13,13,13,13,13,13,13,13,13,13,13,13,13,13,13,13,13,13,13,13,13,13,13,13,13,13,13,13,14,14,14,14,14,14,14,14,14,14,14,14,14,14,14,14,14,14,14,14,14,14,14,14,14,14,14,14,14,14,14,14,14,14,14,14,14,14,14,14,14,14,14,15,15,15,15,15,15,15,15,15,15,15,15,15,15,15,15,15,15,15,15,15,15,15,15,15,15,15,15,15,15,15,15,15,15,15,15,15,15,15,15,15,15,15,15,15,16,16,16,16,16,16,16,16,16,16,16,16,16,16,16,16,16,16,16,16,16,16,16,16,16,16,16,16,16,16,16,16,16,16,16,16,16,16,16,16,16,16,16,16,16,16,16,16,16,16,16,16,16,16,16,16,16,16,16,16,16,16,16,16,16,16,16,16,17,17,17,17,17,17,17,17,17,17,17,17,17,17,17,17,17,17,17,17,17,17,17,17,17,17,17,17,17,17,17,17,17,17,17,17,17,17,17,17,17,17,17,17,17,17,17,17,17,17,17,17,17,17,17,17,17,17,17,17,17,18,18,18,18,18,18,18,18,18,18,18,18,18,18,18,18,18,18,18,18,18,18,18,18,18,18,19,19,19,19,19,19,19,19,19,19,19,19,19,19,19,19,19,19,19,19,19,19,19,19,19,19,19,19,19,19,19,19,19,19,19,19,19,19,19,19,19,20,20,20,20,20,20,20,20,20,20,20,20,20,20,20,20,20,20,20,20,20,20,20,20,20,20,20,20,20,20,20,20,20,20,20,20,20,20,20,20,20,20,20,20,20,20,20,20,20,20,20,20,20,20,20,20,20,20,20,20,20,20,20,21,21,21,21,21,21,21,21,21,21,21,21,21,21,21,21,21,21,21,21,21,21,21,21,21,21,21,21,21,21,21,21,21,21,21,21,21,21,21,21,21,21,21,21,21,21,21,21,21,21,21,21,21,21,21,21,21,21,21,21,21,21,21,21,22,22,22,22,22,22,22,22,22,22,22,22,22,22,22,22,22,22,22,22,22,22,22,22,22,22,22,22,23,23,23,23,23,23,23,23,23,23,23,23,23,23,23,23,23,23,23,23,23,23,23,23,23,23,23,23,23,23,23,23,23,23,23,23,23,23,23,23,23,24,24,24,24,24,24,24,24,24,24,24,24,24,24,24,24,24,24,24,24,24,24,24,24,24,24,24,24,24,24,24,25,25,25,25,25,25,25,25,25,25,25,25,25,25,25,25,25,25,25,25,25,25,25,25,25,25,25,25,26,26,26,26,26,26,26,26,26,26,26,26,26,26,26,26,26,26,26,26,26,26,26,26,26,26,26,26,26,26,26,26,26,26,26,26,27,27,27,27,27,27,27,27,27,27,27,27,27,27,27,27,27,27,27,27,27,27,27,27,27,27,27,27,27,27,27,27,27,27,27,27,27,27,28,28,28,28,28,28,28,28,28,28,28,28,28,28,28,28,28,28,28,28,28,28,28,28,28,28,28,28,28,28,28,28,28,28,28,28,28,28,29,29,29,29,29,29,29,29,29,29,29,29,29,29,29,29,29,29,29,29,29,29,29,29,29,29,29,29,29,29,29,29,29,29,29,29,29,29,29,29,29,29,30,30,30,30,30,30,30,30,30,30,30,30,30,30,30,30,30,30,30,30,30,30,30,30,30,30,31,31,31,31,31,31,31,31,31,31,31,31,31,31,31,31,31,31,31,31,31,31,31,31,31,31,31,31,31,31,31,32,32,32,32,32,32,32,32,32,32,32,32,32,32,32,32,32,32,32,32,32,32,32,32,32,32,32,32,32,32,32,32,32,32,32,32,32,32,32,32,32,32,32,32,33,33,33,33,33,33,33,33,33,33,33,33,33,33,33,33,33,33,33,33,33,33,33,33,33,33,33,33,33,33,34,34,34,34,34,34,34,34,34,34,34,34,34,34,34,34,34,34,34,34,34,34,34,34,34,34,34,34,34,34,34,34,34,34,34,34,34,34,34,34,34,34,34,34,34,34,34,34,34,34,34,34,34,34,35,35,35,35,35,35,35,35,35,35,35,35,35,35,35,35,35,35,35,35,35,35,35,35,35,35,35,35,35,35,35,35,36,36,36,36,36,36,36,36,36,36,36,36,36,36,36,36,36,36,36,36,36,36,36,36,36,36,36,36,36,36,36,36,36,36,36,37,37,37,37,37,37,37,37,37,37,37,37,37,37,37,37,37,37,37,37,37,37,37,37,37,37,37,37,37,37,37,37,37,37,37,37,37,37,38,38,38,38,38,38,38,38,38,38,38,38,38,38,38,38,38,38,38,38,38,38,39,39,39,39,39,39,39,39,39,39,39,39,39,39,39,39,39,39,39,39,39,39,39,39,39,39,39,39,39,39,39,39,39,40,40,40,40,40,40,40,40,40,40,40,40,40,40,40,40,40,40,40,40,40,40,40,40,40,40,41,41,41,41,41,41,41,41,41,41,41,41,41,41,41,41,41,41,41,41,41,41,41,41,41,41,41,41,42,42,42,42,42,42,42,42,42,42,42,42,42,42,42,42,42,42,42,42,42,42,42,42,42,42,42,42,42,42,42,42,42,42,42,43,43,43,43,43,43,43,43,43,43,43,43,43,43,43,43,43,43,43,43,43,43,43,43,43,43,43,43,43,43,43,43,43,43,43,43,43,43,43,43,43,43,43,43,43,44,44,44,44,44,44,44,44,44,44,44,44,44,44,44,44,44,44,44,44,44,44,44,44,44,44,44,44,44,44,44,44,44,45,45,45,45,45,45,45,45,45,45,45,45,45,45,45,45,45,45,45,45,45,45,45,45,45,46,46,46,46,46,46,46,46,46,46,46,46,46,46,46,46,46,46,46,46,46,46,46,46,46,46,46,46,46,46,46,46,46,46,46,46,46,46,46,46,46,46,47,47,47,47,47,47,47,47,47,47,47,47,47,47,47,47,47,47,47,47,47,47,47,47,47,47,47,47,47,47,47,47,48,48,48,48,48,48,48,48,48,48,48,48,48,48,48,48,48,48,48,48,48,48,48,48,48,49,49,49,49,49,49,49,49,49,49,49,49,49,49,49,49,49,49,49,49,49,49,49,49,49,49,50,50,50,50,50,50,50,50,50,50,50,50,50,50,50,50,50,50,50,50,50,50,50,50,50,50,50,50,50,50,50,51,51,51,51,51,51,51,51,51,51,51,51,51,51,51,51,51,51,51,51,51,51,51,51,51,51,51,51,51,51,51,52,52,52,52,52,52,52,52,52,52,52,52,52,52,52,52,52,52,52,52,52,52,52,52,52,52,52,53,53,53,53,53,53,53,53,53,53,53,53,53,53,53,53,53,53,53,53,53,53,53,53,53,53,53,53,53,54,54,54,54,54,54,54,54,54,54,54,54,54,54,54,54,54,54,54,54,54,54,54,54,54,54,54,54,54,54,54,54,55,55,55,55,55,55,55,55,55,55,55,55,55,55,55,55,55,55,55,55,55,55,55,55,55,55,55,55,55,55,56,56,56,56,56,56,56,56,56,56,56,56,56,56,56,56,56,57,57,57,57,57,57,57,57,57,57,57,57,57,57,57,57,57,57,57,57,58,58,58,58,58,58,58,58,58,58,58,58,58,58,58,58,58,58,58,58,58,58,58,58,58,58,58,58,58,59,59,59,59,59,59,59,59,59,59,59,59,59,59,59,59,59,59,59,59,59,59,59,59,59,59,59,59,59,60,60,60,60,60,60,60,60,60,60,60,60,60,60,60,60,60,60,60,60,60,61,61,61,61,61,61,61,61,61,61,61,61,61,61,61,61,61,61,61,61,61,61,61,61,61,62,62,62,62,62,62,62,62,62,62,62,62,62,62,62,62,62,62,62,62,62,62,62,63,63,63,63,63,63,63,63,63,63,63,63,63,63,63,63,63,63,63,63,63,63,63,63,63,63,64,64,64,64,64,64,64,64,64,64,64,64,64,64,64,64,64,64,64,64,64,64,65,65,65,65,65,65,65,65,65,65,65,65,65,66,66,66,66,66,66,66,66,66,66,66,66,66,66,66,66,66,66,66,66,66,66,66,67,67,67,67,67,67,67,67,67,67,67,67,67,67,67,67,67,67,67,67,68,68,68,68,68,68,68,68,68,68,68,68,68,68,69,69,69,69,69,69,69,69,69,69,69,69,69,69,69,69,69,69,69,69,70,70,70,70,70,70,70,70,70,70,70,70,70,70,70,70,70,70,70,71,71,71,71,71,71,71,71,71,71,71,71,71,72,72,72,72,72,72,72,72,72,72,72,72,72,72,72,72,72,73,73,73,73,73,73,73,73,73,73,73,73,73,73,73,73,74,74,74,74,74,74,74,74,74,74,74,75,75,75,75,75,75,75,75,75,75,75,75,75,76,76,76,76,76,76,76,76,76,76,77,77,77,77,77,77,77,77,77,78,78,78,78,78,78,78,78,78,78,78,79,79,79,79,79,79,79,79,79,79,80,80,80,80,80,80,80,80,80,80,81,81,81,81,81,81,81,81,82,82,82,82,82,82,82,82,83,83,83,83,83,83,84,84,84,84,84,84,85,85,85,85,85,86,86,86,86,87,87,87,88,88,89,89,90];
unsucc = [3,4,5,6,7,8,9,10,11,12,13,14,15,16,17,19,20,22,24,26,28,29,30,31,32,34,35,36,37,40,42,43,44,45,48,53,54,61,63,4,5,7,8,9,11,14,16,18,19,22,23,24,25,27,28,29,33,35,38,41,49,51,57,6,10,12,13,15,18,23,25,26,27,31,33,36,38,39,41,45,48,57,6,7,8,9,10,11,12,13,14,15,17,18,19,20,21,23,25,26,27,28,31,32,33,35,36,38,39,41,44,45,48,49,50,51,53,54,57,62,65,68,76,7,8,9,10,11,14,16,18,19,22,23,24,25,27,28,29,31,32,33,35,38,39,41,49,51,57,65,8,9,10,12,13,14,15,16,18,19,22,23,24,25,26,27,29,30,31,32,33,34,35,36,37,38,39,40,41,42,45,47,48,52,55,56,57,60,64,65,68,71,72,74,75,77,10,11,12,13,15,16,17,18,20,22,23,24,25,26,27,28,30,31,33,34,36,38,39,40,41,42,44,45,47,48,49,50,52,57,75,10,11,12,13,15,16,17,18,20,22,23,24,25,26,27,28,29,30,31,32,33,34,36,37,38,39,40,41,42,43,44,45,47,48,49,50,52,57,61,62,73,75,11,12,14,15,16,18,19,22,23,24,25,26,27,28,29,30,31,32,33,34,35,36,37,38,39,40,41,42,44,45,48,49,50,51,52,53,56,57,58,59,60,61,62,63,65,67,68,70,71,72,75,12,13,14,15,16,18,19,22,23,24,25,26,27,29,30,31,32,33,34,35,36,37,38,39,40,41,42,45,47,48,52,53,55,56,57,60,64,65,66,68,71,72,74,75,77,80,13,14,15,16,17,18,19,20,21,22,23,24,25,27,28,29,31,32,33,35,37,38,39,41,44,46,49,51,57,65,14,15,16,18,19,22,23,24,25,26,27,28,29,30,31,32,33,34,35,36,37,38,39,40,41,42,44,45,48,49,50,51,52,53,54,56,57,58,59,60,61,62,63,65,67,68,69,70,71,72,75,15,16,17,18,20,22,23,24,25,26,27,28,29,30,31,32,33,34,36,37,38,39,40,41,42,43,44,45,47,48,49,50,52,53,54,55,57,61,62,64,66,73,75,16,17,18,19,20,21,22,23,24,25,26,27,28,29,30,31,32,33,34,35,36,38,39,40,41,42,43,46,47,48,49,50,51,53,55,56,57,58,59,65,68,69,73,75,83,17,18,19,20,21,22,23,24,25,26,27,28,29,30,31,32,33,34,35,36,37,38,39,40,41,42,43,44,45,47,48,49,50,51,52,53,54,55,56,57,58,59,60,61,62,63,64,65,66,67,68,69,70,71,72,74,75,76,77,78,79,80,81,82,85,86,87,91,18,19,22,23,24,25,26,27,28,29,30,31,32,33,34,35,36,37,38,39,40,41,42,44,45,47,48,49,50,51,52,53,54,55,56,57,58,59,60,61,62,63,64,65,66,67,68,69,70,71,72,74,75,76,77,78,80,81,82,86,91,19,20,21,22,24,26,28,29,30,31,32,34,35,36,37,40,42,43,44,45,46,48,53,54,61,63,20,21,22,23,24,25,26,27,28,29,30,31,32,33,34,36,37,38,39,40,41,42,43,44,45,47,48,49,50,52,53,54,55,57,61,62,63,64,66,73,75,22,23,24,25,26,27,28,29,30,31,32,33,34,35,36,37,38,39,40,41,42,43,44,45,47,48,49,50,51,52,53,54,55,56,57,58,59,60,61,62,63,64,65,66,67,68,69,70,71,72,73,74,75,76,77,78,79,80,81,82,86,88,91,22,23,24,25,26,27,28,29,30,31,32,33,34,35,36,37,38,39,40,41,42,43,44,45,47,48,49,50,51,52,53,54,55,56,57,58,59,60,61,62,63,64,65,66,67,68,69,70,71,72,73,74,75,76,77,78,79,80,81,82,86,87,88,91,23,25,26,27,28,31,32,33,35,36,38,39,41,44,45,46,48,49,50,51,53,54,57,62,65,68,76,82,24,25,26,27,28,29,30,31,32,33,34,35,36,37,38,39,40,41,42,43,44,45,46,48,49,50,51,53,54,56,61,62,63,65,71,73,75,76,82,83,84,25,26,27,28,29,31,32,33,35,36,37,38,39,41,44,45,46,48,49,50,51,53,54,57,61,62,65,68,76,81,82,26,27,28,29,30,31,32,34,35,36,37,40,41,42,43,44,45,46,47,48,52,53,54,55,61,63,64,66,27,28,29,30,31,32,33,34,35,36,37,38,39,40,41,42,43,44,46,47,48,49,51,53,54,55,56,57,58,59,65,68,69,71,74,75,28,29,30,31,32,33,34,35,36,37,38,39,40,42,43,44,45,46,47,48,49,50,51,52,53,54,55,56,60,61,62,63,64,67,71,73,74,76,29,30,31,32,33,34,35,36,37,38,39,40,41,42,43,45,46,47,48,52,53,55,56,57,60,61,63,64,65,66,68,71,72,74,75,77,80,83,30,31,32,33,34,35,36,38,39,40,41,42,43,44,45,46,47,48,49,50,51,52,53,54,55,56,57,58,60,62,65,67,68,70,73,75,76,81,82,83,87,91,31,32,33,35,36,37,38,39,41,44,45,46,48,49,50,51,53,54,57,61,62,65,68,76,81,82,33,34,35,36,37,38,40,41,42,44,45,46,47,48,49,50,51,52,53,54,56,57,58,59,61,63,69,71,75,83,84,33,34,35,36,37,38,39,40,41,42,44,45,46,47,48,49,50,51,52,53,54,55,56,57,58,59,60,61,63,64,65,66,67,68,69,70,71,72,75,78,83,84,86,87,34,35,36,37,38,40,41,42,43,44,45,46,47,48,49,51,52,53,54,55,56,61,63,64,66,71,74,75,83,84,35,36,37,38,39,40,41,42,43,44,45,46,47,48,49,50,51,52,53,54,55,56,57,58,59,60,61,62,64,65,66,67,68,69,70,71,72,73,74,75,76,77,78,79,80,81,82,83,85,86,87,88,90,91,36,37,38,39,40,41,42,43,44,45,46,47,48,49,50,52,53,54,55,57,61,62,63,64,65,66,68,73,75,78,83,84,37,38,39,40,41,42,43,44,45,46,47,49,50,51,52,55,56,57,58,59,60,61,62,63,64,65,70,71,73,74,75,76,82,83,87,38,39,40,41,42,43,44,45,46,47,48,49,50,51,52,53,54,55,56,57,58,59,60,62,65,67,68,69,70,72,73,75,76,81,82,83,87,91,39,40,41,42,43,44,45,46,47,48,52,53,54,55,57,61,63,64,65,66,68,78,40,41,42,43,44,45,46,47,48,49,50,51,52,53,54,55,56,57,58,59,61,62,63,64,66,69,71,73,74,75,76,83,84,41,42,43,44,45,46,48,49,50,51,53,54,57,61,62,63,65,68,73,75,76,81,82,83,84,88,42,43,44,45,46,47,48,49,50,51,52,53,54,55,56,60,61,62,63,64,66,67,70,71,73,74,76,87,44,45,46,47,48,49,50,51,52,53,54,55,56,57,58,59,60,61,62,63,64,65,66,67,68,69,70,72,76,78,81,82,86,87,91,44,45,46,47,48,49,50,51,52,53,54,55,56,57,58,59,60,61,62,63,64,65,66,67,68,69,70,71,72,74,75,76,77,78,79,80,81,82,83,84,85,86,87,89,91,45,46,47,48,49,50,51,52,53,55,56,57,58,59,60,61,63,64,65,66,68,69,70,71,72,73,74,75,77,80,83,86,87,46,47,48,49,50,51,53,54,55,56,57,58,59,62,65,68,69,71,73,74,75,76,81,82,83,47,48,49,50,51,52,53,54,55,56,57,58,59,60,61,62,63,64,65,66,67,68,69,70,71,72,73,74,75,76,77,78,79,80,81,82,85,86,87,88,90,91,48,49,50,51,52,53,54,56,57,58,59,60,61,62,63,65,67,68,69,70,71,72,73,75,76,81,82,83,84,87,88,91,49,50,51,52,55,56,57,58,59,60,61,62,63,64,65,67,70,71,73,74,75,76,82,83,87,52,53,54,55,56,57,60,61,63,64,65,66,67,68,70,71,72,74,75,77,78,79,80,83,84,85,51,52,53,54,55,56,57,58,59,60,61,63,64,65,66,67,68,69,70,71,72,74,75,77,78,79,80,83,84,85,86,52,53,54,55,56,57,58,60,61,62,63,64,65,66,67,68,70,71,72,73,74,75,77,78,79,80,83,84,85,87,89,53,54,55,56,57,58,59,61,62,63,64,65,66,68,69,71,73,74,75,76,78,81,82,83,84,86,88,55,56,57,58,59,60,61,62,63,64,65,67,68,70,71,72,73,74,75,76,77,79,80,81,82,83,87,88,91,55,56,57,58,59,60,61,62,63,64,65,66,67,68,69,70,71,72,73,74,75,76,77,79,80,81,82,83,86,87,88,91,56,57,58,59,60,61,62,63,65,67,68,69,70,71,72,73,74,75,76,77,79,80,81,82,83,84,87,88,89,91,57,61,62,63,64,65,66,68,73,75,76,78,81,82,83,84,88,60,61,62,63,64,65,66,67,70,71,73,74,75,76,78,82,83,84,87,91,60,61,62,63,64,65,66,67,68,70,71,72,73,74,75,76,77,78,79,80,81,82,83,84,85,87,88,89,91,60,61,62,63,64,65,66,67,68,70,71,72,73,74,75,76,77,78,79,80,81,82,83,84,85,87,88,89,91,61,62,63,64,65,66,68,69,71,73,74,75,76,77,78,81,82,83,84,86,88,62,64,65,66,67,68,69,70,71,72,73,74,75,76,77,78,79,80,81,82,83,85,86,87,91,63,64,65,66,67,68,69,70,71,72,73,74,75,77,78,79,80,83,84,85,86,87,89,64,65,66,67,68,69,70,71,72,73,74,75,76,77,78,79,80,81,82,83,85,86,87,88,90,91,65,67,68,69,70,71,72,73,74,75,76,77,79,80,81,82,83,84,87,88,89,91,66,67,69,70,71,73,74,75,76,83,84,86,87,67,68,69,70,71,72,73,74,75,76,77,78,79,80,81,82,83,84,85,87,88,89,91,68,69,70,71,72,73,74,75,76,77,78,80,81,82,83,84,86,87,88,89,69,70,71,73,74,75,76,78,82,83,84,86,87,91,70,71,72,73,74,75,76,77,78,79,80,81,82,83,84,85,87,88,89,91,71,72,73,74,75,76,77,78,79,80,81,82,83,84,85,86,88,90,91,72,73,75,76,78,81,82,83,84,86,87,88,91,73,74,75,76,77,78,79,81,82,83,84,85,86,87,88,90,91,74,75,76,77,78,79,80,81,82,83,84,85,86,87,89,91,75,76,78,81,82,83,84,86,87,88,91,76,77,78,79,80,81,82,85,86,87,88,90,91,77,78,79,80,83,84,85,86,87,89,78,81,82,83,84,86,87,88,91,79,80,81,82,83,84,86,87,88,89,91,80,81,82,83,84,86,87,88,89,91,81,82,83,84,85,86,87,88,90,91,82,83,84,85,86,87,89,91,83,84,85,86,87,88,89,90,85,86,87,88,90,91,85,86,87,88,90,91,86,87,88,89,91,87,88,89,91,88,90,91,89,91,90,91,91];

USEFUL_RES = [{},
	{2,3,5,8,9,10,11,13},
	{3,7,10,13},
	{2,3,5,6,7,8,9,10,11,13},
	{2,3,5,6,8,9,10,11,13},
	{3,5,7,8,10,13},
	{1,3,7,10,13},
	{1,4,6,8,10,12},
	{1,2,3,4,7,8,9,10,11,13},
	{3,7,10,13},
	{3,5,6,7,8,10,13},
	{1,3,5,6,8,10,12,14},
	{3,7,10,13},
	{1,2,3,4,7,9,10,11,13},
	{2,3,5,9,10,11},
	{1,3,4,5,8,10,13},
	{1,2,3,5,6,7,8,9,10,11,12,13,14},
	{1,2,3,4,5,6,8,9,10,11,12},
	{1,2,4,8,9,10,11},
	{3,5,7,8,10,13},
	{1,2,3,4,5,8,9,10,11},
	{2,3,5,7,8,9,10,11,13},
	{1,2,6,8,9,11,12,14},
	{1,6,8,12,14},
	{1,2,6,8,9,11,12,14},
	{1,3,5,6,8,10,12,14},
	{2,9,11},
	{3,5,6,8,10},
	{1,2,4,6,8,9,10,11},
	{3,7,10,13},
	{1,4,6,8,10,12},
	{1,6,8,12,14},
	{2,3,5,8,9,10,11,13},
	{3,7,10,13},
	{1,2,3,6,7,8,9,10,11,13},
	{2,3,7,8,9,10,11,13},
	{1,2,3,4,7,9,10,11,13},
	{1,6,8,12,14},
	{1,6,8,12,14},
	{2,3,5,6,7,8,9,10,11,13},
	{1,3,4,5,7,8,10,13},
	{1,2,3,4,6,7,8,9,10,11,12,13},
	{3,6,7,8,10,12,13},
	{3,5,6,7,8,10,12,13},
	{1,3,4,6,7,8,10,12,13},
	{2,9,11},
	{3,6,7,8,10,12,13},
	{3,6,7,8,10,13},
	{3,5,6,7,8,10,12,13},
	{1,4,6,8,10,12,14},
	{2,6,8,9,11,12},
	{1,2,3,4,7,9,10,11,13},
	{2,3,5,8,9,10,11,13},
	{2,3,6,7,8,9,10,11,12,13},
	{1,3,6,7,8,10,12,13,14},
	{3,5,7,8,10,13},
	{2,6,8,9,11,12},
	{1,6,8,12,14},
	{6,8,12},
	{1,2,3,4,5,6,8,9,10,11,12,13},
	{1,2,3,4,7,9,10,11,13},
	{2,3,5,7,8,9,10,11,13},
	{2,3,6,7,8,9,10,11,12,13},
	{1,2,3,4,7,9,10,11,13},
	{1,2,4,6,8,9,10,11},
	{3,5,7,8,10,13},
	{1,2,6,8,9,11,12,14},
	{1,2,3,4,5,6,8,9,10,11,12,13},
	{3,5,10},
	{1,3,4,5,6,8,10},
	{1,4,10},
	{1,3,5,6,8,10,12,13,14},
	{3,5,7,8,10,13},
	{2,9,11},
	{1,2,4,6,8,9,10,11,12,14},
	{3,6,7,8,10,12,13},
	{3,6,7,8,10,12,13},
	{3,5,8,10},
	{1,4,6,8,10,12,14},
	{3,5,7,8,10,13},
	{1,3,4,5,7,8,10,13},
	{3,7,10,13},
	{2,3,7,8,9,10,11,13},
	{1,2,3,4,5,8,9,10,11,13},
	{2,3,5,8,9,10,11,13},
	{6,8,12},
	{3,5,8,10,13},
	{1,2,3,5,6,8,9,10,11,12,14},
	{1,2,3,7,9,10,11,13},
	{2,3,7,9,10,11,13},
	{2,6,8,9,11,12},
	{}];

POTENTIAL_ACT = [{7,8,9,12,14,16,17,18,19,21,23,24,25,26,29,31,32,35,37,38,39,41,42,45,50,52,55,58,60,61,64,65,67,68,70,71,72,75,79,81,84,88,89},
	{2,4,5,9,14,15,17,18,19,21,22,23,25,27,29,33,35,36,37,40,42,46,51,52,53,54,57,60,61,62,63,64,65,67,68,74,75,83,84,85,88,89,90,91},
	{2,3,4,5,6,7,9,10,11,12,13,14,15,16,17,18,20,21,22,26,28,30,33,34,35,36,37,40,41,42,43,44,45,47,48,49,52,53,54,55,56,60,61,62,63,64,66,68,69,70,72,73,76,77,78,80,81,82,83,84,85,87,88,89,90},
	{8,9,14,16,18,19,21,29,31,37,41,42,45,50,52,60,61,64,65,68,70,71,75,79,81,84},
	{2,4,5,6,11,12,15,16,17,18,20,21,22,26,28,33,40,41,44,49,53,56,60,62,66,68,69,70,72,73,78,80,81,84,85,87,88},
	{4,5,8,11,12,17,18,23,24,25,26,28,29,31,32,35,38,39,40,42,43,44,45,47,48,49,50,51,54,55,57,58,59,60,63,65,67,68,70,72,75,76,77,79,86,88,91},
	{3,4,6,7,9,10,11,13,14,17,20,22,30,34,35,36,37,40,41,42,43,44,45,47,48,49,52,54,55,56,61,62,63,64,66,73,76,77,80,81,82,83,89,90},
	{2,4,5,6,8,9,11,12,16,17,18,19,20,21,22,23,24,25,26,28,29,31,32,33,35,36,38,39,40,41,42,43,44,45,47,48,49,50,51,53,54,55,56,57,58,59,60,62,63,65,66,67,68,70,72,73,75,76,77,78,79,80,81,83,84,85,86,87,88,91},
	{2,4,5,9,14,15,17,18,19,21,22,23,25,27,29,33,35,36,37,40,42,46,51,52,53,54,57,60,61,62,63,64,65,67,68,74,75,83,84,85,88,89,90,91},
	{2,3,4,5,6,7,8,9,10,11,12,13,14,15,16,17,18,19,20,21,22,26,28,29,30,31,33,34,35,36,37,40,41,42,43,44,45,47,48,49,50,52,53,54,55,56,60,61,62,63,64,65,66,68,69,70,71,72,73,75,76,77,78,79,80,81,82,83,84,85,87,88,89,90},
	{2,4,5,9,14,15,17,18,19,21,22,23,25,27,29,33,35,36,37,40,42,46,51,52,53,54,57,60,61,62,63,64,65,67,68,74,75,83,84,85,88,89,90,91},
	{8,12,17,18,23,24,25,26,31,32,38,39,42,43,44,45,47,49,50,51,54,55,57,58,59,60,63,67,68,72,75,76,77,79,86,88,91},
	{2,3,4,5,6,7,9,10,11,13,14,16,17,20,22,30,33,34,35,36,37,40,41,42,43,44,45,47,48,49,52,53,54,55,56,60,61,62,63,64,66,68,72,73,76,77,80,81,82,83,84,85,87,89,90},
	{12,17,23,24,25,26,32,38,39,50,55,58,67,72,75,79,88}];
